; Options: -q --produce-models --incremental --print-success --lang smt2.6 --arrays-exp
(set-logic ALL)

(declare-fun start!2485 () Bool)

(assert start!2485)

(declare-fun b!13106 () Bool)

(declare-fun res!10352 () Bool)

(declare-fun e!7204 () Bool)

(assert (=> b!13106 (=> (not res!10352) (not e!7204))))

(declare-datatypes ((array!912 0))(
  ( (array!913 (arr!395 (Array (_ BitVec 32) (_ FloatingPoint 11 53))) (size!395 (_ BitVec 32))) )
))
(declare-fun q!93 () array!912)

(declare-fun qInv!0 (array!912) Bool)

(assert (=> b!13106 (= res!10352 (qInv!0 q!93))))

(declare-fun b!13107 () Bool)

(declare-fun e!7208 () Bool)

(declare-fun e!7207 () Bool)

(assert (=> b!13107 (= e!7208 e!7207)))

(declare-fun res!10349 () Bool)

(assert (=> b!13107 (=> (not res!10349) (not e!7207))))

(declare-fun i!271 () (_ BitVec 32))

(declare-fun lt!6605 () Bool)

(declare-datatypes ((Unit!1410 0))(
  ( (Unit!1411) )
))
(declare-datatypes ((array!914 0))(
  ( (array!915 (arr!396 (Array (_ BitVec 32) (_ BitVec 32))) (size!396 (_ BitVec 32))) )
))
(declare-datatypes ((tuple3!226 0))(
  ( (tuple3!227 (_1!317 Unit!1410) (_2!317 array!914) (_3!249 (_ BitVec 32))) )
))
(declare-fun lt!6608 () tuple3!226)

(declare-fun jz!59 () (_ BitVec 32))

(assert (=> b!13107 (= res!10349 (and (bvsle #b00000000000000000000000000000000 (select (arr!396 (_2!317 lt!6608)) (bvsub jz!59 #b00000000000000000000000000000001))) (bvsle (select (arr!396 (_2!317 lt!6608)) (bvsub jz!59 #b00000000000000000000000000000001)) #b00000000100000000000000000000000) (or (not lt!6605) (not (= (_3!249 lt!6608) #b00000000000000000000000000000000)) (not (= (select (arr!396 (_2!317 lt!6608)) (bvsub jz!59 #b00000000000000000000000000000001)) #b00000000100000000000000000000000))) (bvsle (select (arr!396 (_2!317 lt!6608)) (bvsub jz!59 #b00000000000000000000000000000001)) #b00000000011111111111111111111111) (bvsle #b00000000000000000000000000000000 i!271) (bvsle i!271 jz!59)))))

(declare-fun e!7205 () tuple3!226)

(assert (=> b!13107 (= lt!6608 e!7205)))

(declare-fun c!1592 () Bool)

(assert (=> b!13107 (= c!1592 lt!6605)))

(declare-fun lt!6614 () (_ BitVec 32))

(assert (=> b!13107 (= lt!6614 #b00000000000000000000000000000000)))

(declare-datatypes ((tuple4!272 0))(
  ( (tuple4!273 (_1!318 Unit!1410) (_2!318 array!914) (_3!250 (_ BitVec 32)) (_4!136 (_ FloatingPoint 11 53))) )
))
(declare-fun lt!6609 () tuple4!272)

(assert (=> b!13107 (= lt!6605 (bvsge (select (arr!396 (_2!318 lt!6609)) (bvsub jz!59 #b00000000000000000000000000000001)) #b00000000100000000000000000000000))))

(declare-fun b!13108 () Bool)

(assert (=> b!13108 (= e!7207 (and (not (= (bvand jz!59 #b10000000000000000000000000000000) #b00000000000000000000000000000000)) (not (= (bvand jz!59 #b10000000000000000000000000000000) (bvand (bvsub jz!59 #b00000000000000000000000000000001) #b10000000000000000000000000000000)))))))

(declare-fun b!13109 () Bool)

(declare-fun lt!6607 () (_ FloatingPoint 11 53))

(declare-fun lt!6610 () array!914)

(declare-fun e!7209 () tuple4!272)

(declare-fun computeModuloWhile!0 ((_ BitVec 32) array!912 array!914 (_ BitVec 32) (_ FloatingPoint 11 53)) tuple4!272)

(assert (=> b!13109 (= e!7209 (computeModuloWhile!0 jz!59 q!93 lt!6610 jz!59 lt!6607))))

(declare-fun b!13110 () Bool)

(declare-fun res!10354 () Bool)

(assert (=> b!13110 (=> (not res!10354) (not e!7207))))

(declare-fun iq!194 () array!914)

(declare-fun qq!48 () array!912)

(assert (=> b!13110 (= res!10354 (and (bvsle (select (arr!396 iq!194) (bvsub jz!59 #b00000000000000000000000000000001)) #b00000000011111111111111111111111) (= (size!395 qq!48) #b00000000000000000000000000010100)))))

(declare-fun b!13111 () Bool)

(declare-fun lt!6613 () (_ BitVec 32))

(declare-datatypes ((tuple4!274 0))(
  ( (tuple4!275 (_1!319 Unit!1410) (_2!319 (_ BitVec 32)) (_3!251 array!914) (_4!137 (_ BitVec 32))) )
))
(declare-fun e!7206 () tuple4!274)

(declare-fun computeModuloWhile!3 ((_ BitVec 32) array!912 (_ BitVec 32) array!914 (_ BitVec 32)) tuple4!274)

(assert (=> b!13111 (= e!7206 (computeModuloWhile!3 jz!59 q!93 lt!6613 (_2!318 lt!6609) lt!6614))))

(declare-fun b!13113 () Bool)

(declare-fun res!10356 () Bool)

(assert (=> b!13113 (=> (not res!10356) (not e!7207))))

(declare-fun iqInv!0 (array!914) Bool)

(assert (=> b!13113 (= res!10356 (iqInv!0 iq!194))))

(declare-fun b!13114 () Bool)

(assert (=> b!13114 (= e!7204 e!7208)))

(declare-fun res!10348 () Bool)

(assert (=> b!13114 (=> (not res!10348) (not e!7208))))

(declare-fun lt!6606 () (_ FloatingPoint 11 53))

(assert (=> b!13114 (= res!10348 (and (fp.leq (fp #b0 #b00000000000 #b0000000000000000000000000000000000000000000000000000) lt!6606) (fp.lt lt!6606 (fp #b0 #b10000000010 #b0000000000000000000000000000000000000000000000000000))))))

(assert (=> b!13114 (= lt!6606 (fp.sub roundNearestTiesToEven (_4!136 lt!6609) (fp.mul roundNearestTiesToEven (fp #b0 #b10000000010 #b0000000000000000000000000000000000000000000000000000) ((_ to_fp 11 53) roundNearestTiesToEven (ite (fp.isNaN (fp.mul roundNearestTiesToEven (_4!136 lt!6609) (fp #b0 #b01111111100 #b0000000000000000000000000000000000000000000000000000))) #b0000000000000000000000000000000000000000000000000000000000000000 (ite (fp.gt (fp.mul roundNearestTiesToEven (_4!136 lt!6609) (fp #b0 #b01111111100 #b0000000000000000000000000000000000000000000000000000)) ((_ to_fp 11 53) roundTowardZero #b0111111111111111111111111111111111111111111111111111111111111111)) #b0111111111111111111111111111111111111111111111111111111111111111 (ite (fp.lt (fp.mul roundNearestTiesToEven (_4!136 lt!6609) (fp #b0 #b01111111100 #b0000000000000000000000000000000000000000000000000000)) ((_ to_fp 11 53) roundTowardZero #b1000000000000000000000000000000000000000000000000000000000000000)) #b1000000000000000000000000000000000000000000000000000000000000000 ((_ fp.to_sbv 64) roundTowardZero (fp.mul roundNearestTiesToEven (_4!136 lt!6609) (fp #b0 #b01111111100 #b0000000000000000000000000000000000000000000000000000))))))))))))

(assert (=> b!13114 (= lt!6609 e!7209)))

(declare-fun c!1591 () Bool)

(assert (=> b!13114 (= c!1591 (bvsgt jz!59 #b00000000000000000000000000000000))))

(assert (=> b!13114 (= lt!6607 (select (arr!395 q!93) jz!59))))

(assert (=> b!13114 (= lt!6610 (array!915 ((as const (Array (_ BitVec 32) (_ BitVec 32))) #b00000000000000000000000000000000) #b00000000000000000000000000010100))))

(declare-fun b!13115 () Bool)

(declare-fun Unit!1412 () Unit!1410)

(assert (=> b!13115 (= e!7209 (tuple4!273 Unit!1412 lt!6610 jz!59 lt!6607))))

(declare-fun b!13116 () Bool)

(declare-fun Unit!1413 () Unit!1410)

(assert (=> b!13116 (= e!7206 (tuple4!275 Unit!1413 lt!6613 (_2!318 lt!6609) lt!6614))))

(declare-fun b!13117 () Bool)

(declare-fun res!10351 () Bool)

(assert (=> b!13117 (=> (not res!10351) (not e!7207))))

(declare-fun QInt!0 ((_ BitVec 32)) Bool)

(assert (=> b!13117 (= res!10351 (QInt!0 (select (arr!396 iq!194) (bvsub (bvsub jz!59 #b00000000000000000000000000000001) i!271))))))

(declare-fun b!13118 () Bool)

(declare-fun res!10350 () Bool)

(assert (=> b!13118 (=> (not res!10350) (not e!7207))))

(declare-fun qqInv!0 (array!912) Bool)

(assert (=> b!13118 (= res!10350 (qqInv!0 qq!48))))

(declare-fun b!13119 () Bool)

(declare-fun res!10353 () Bool)

(assert (=> b!13119 (=> (not res!10353) (not e!7207))))

(assert (=> b!13119 (= res!10353 (bvslt i!271 jz!59))))

(declare-fun lt!6611 () (_ BitVec 32))

(declare-fun lt!6612 () tuple4!274)

(declare-fun b!13120 () Bool)

(declare-fun Unit!1414 () Unit!1410)

(assert (=> b!13120 (= e!7205 (tuple3!227 Unit!1414 (array!915 (store (arr!396 (_3!251 lt!6612)) (bvsub jz!59 #b00000000000000000000000000000001) (ite (= (_4!137 lt!6612) #b00000000000000000000000000000000) (bvsub #b00000001000000000000000000000000 lt!6611) (bvsub #b00000000111111111111111111111111 lt!6611))) (size!396 (_3!251 lt!6612))) (_4!137 lt!6612)))))

(assert (=> b!13120 (= lt!6613 #b00000000000000000000000000000000)))

(declare-fun c!1590 () Bool)

(assert (=> b!13120 (= c!1590 (bvslt lt!6613 (bvsub jz!59 #b00000000000000000000000000000001)))))

(assert (=> b!13120 (= lt!6612 e!7206)))

(assert (=> b!13120 (= lt!6611 (select (arr!396 (_3!251 lt!6612)) (bvsub jz!59 #b00000000000000000000000000000001)))))

(declare-fun b!13112 () Bool)

(declare-fun Unit!1415 () Unit!1410)

(assert (=> b!13112 (= e!7205 (tuple3!227 Unit!1415 (_2!318 lt!6609) lt!6614))))

(declare-fun res!10355 () Bool)

(assert (=> start!2485 (=> (not res!10355) (not e!7204))))

(assert (=> start!2485 (= res!10355 (and (bvsle #b00000000000000000000000000000010 jz!59) (bvslt jz!59 #b00000000000000000000000000010011)))))

(assert (=> start!2485 e!7204))

(assert (=> start!2485 true))

(declare-fun array_inv!344 (array!914) Bool)

(assert (=> start!2485 (array_inv!344 iq!194)))

(declare-fun array_inv!345 (array!912) Bool)

(assert (=> start!2485 (array_inv!345 qq!48)))

(assert (=> start!2485 (array_inv!345 q!93)))

(assert (= (and start!2485 res!10355) b!13106))

(assert (= (and b!13106 res!10352) b!13114))

(assert (= (and b!13114 c!1591) b!13109))

(assert (= (and b!13114 (not c!1591)) b!13115))

(assert (= (and b!13114 res!10348) b!13107))

(assert (= (and b!13107 c!1592) b!13120))

(assert (= (and b!13107 (not c!1592)) b!13112))

(assert (= (and b!13120 c!1590) b!13111))

(assert (= (and b!13120 (not c!1590)) b!13116))

(assert (= (and b!13107 res!10349) b!13113))

(assert (= (and b!13113 res!10356) b!13110))

(assert (= (and b!13110 res!10354) b!13118))

(assert (= (and b!13118 res!10350) b!13119))

(assert (= (and b!13119 res!10353) b!13117))

(assert (= (and b!13117 res!10351) b!13108))

(declare-fun m!21091 () Bool)

(assert (=> b!13113 m!21091))

(declare-fun m!21093 () Bool)

(assert (=> b!13109 m!21093))

(declare-fun m!21095 () Bool)

(assert (=> b!13107 m!21095))

(declare-fun m!21097 () Bool)

(assert (=> b!13107 m!21097))

(declare-fun m!21099 () Bool)

(assert (=> b!13111 m!21099))

(declare-fun m!21101 () Bool)

(assert (=> b!13114 m!21101))

(declare-fun m!21103 () Bool)

(assert (=> b!13117 m!21103))

(assert (=> b!13117 m!21103))

(declare-fun m!21105 () Bool)

(assert (=> b!13117 m!21105))

(declare-fun m!21107 () Bool)

(assert (=> b!13120 m!21107))

(declare-fun m!21109 () Bool)

(assert (=> b!13120 m!21109))

(declare-fun m!21111 () Bool)

(assert (=> b!13110 m!21111))

(declare-fun m!21113 () Bool)

(assert (=> start!2485 m!21113))

(declare-fun m!21115 () Bool)

(assert (=> start!2485 m!21115))

(declare-fun m!21117 () Bool)

(assert (=> start!2485 m!21117))

(declare-fun m!21119 () Bool)

(assert (=> b!13118 m!21119))

(declare-fun m!21121 () Bool)

(assert (=> b!13106 m!21121))

(push 1)

(assert (not b!13111))

(assert (not start!2485))

(assert (not b!13113))

(assert (not b!13117))

(assert (not b!13118))

(assert (not b!13106))

(assert (not b!13109))

(check-sat)

(pop 1)

(push 1)

(check-sat)

(pop 1)

